Route #1: 26 7 35 8
Route #2: 46 52 34
Route #3: 39 31 10
Route #4: 38 11
Route #5: 53 14 19
Route #6: 54 13 15 5 29
Route #7: 20 37 36 48
Route #8: 21 47 30
Route #9: 2 28 22
Route #10: 42 41 43 1
Route #11: 6 33 51
Route #12: 17 40 12
Route #13: 32 44 3
Route #14: 16 23 49 24 18
Route #15: 50 25 9
Route #16: 27 45 4
Cost 965